Gurobi Optimizer version 9.1.2 build v9.1.2rc0 (linux64)
Thread count: 36 physical cores, 72 logical processors, using up to 32 threads
Optimize a model with 12 rows, 57 columns and 590 nonzeros
Model fingerprint: 0xf32eec78
Model has 47 quadratic constraints
Coefficient statistics:
  Matrix range     [2e-05, 3e+00]
  QMatrix range    [1e+00, 1e+00]
  QLMatrix range   [1e+00, 1e+00]
  Objective range  [8e-03, 7e-01]
  Bounds range     [1e+00, 1e+00]
  RHS range        [1e+00, 1e+00]
Presolve removed 9 rows and 0 columns

Continuous model is non-convex -- solving as a MIP.

Presolve removed 9 rows and 0 columns
Presolve time: 0.00s
Presolved: 189 rows, 57 columns, 443 nonzeros
Presolved model has 47 bilinear constraint(s)
Variable types: 57 continuous, 0 integer (0 binary)

Root relaxation: objective -1.743721e+00, 44 iterations, 0.00 seconds

    Nodes    |    Current Node    |     Objective Bounds      |     Work
 Expl Unexpl |  Obj  Depth IntInf | Incumbent    BestBd   Gap | It/Node Time

     0     0   -1.74372    0   38          -   -1.74372      -     -    0s
H    0     0                       0.6147548   -1.74372   384%     -    0s
     0     0   -1.64739    0    1    0.61475   -1.64739   368%     -    0s
H    0     0                      -1.6450460   -1.64739  0.14%     -    0s
     0     0     cutoff    0        -1.64505   -1.64505  0.00%     -    0s

Cutting planes:
  RLT: 25
  BQP: 3

Explored 1 nodes (76 simplex iterations) in 0.01 seconds
Thread count was 32 (of 72 available processors)

Solution count 2: -1.64505 0.614755 
No other solutions better than -1.64505

Optimal solution found (tolerance 1.00e-04)
Best objective -1.645045978473e+00, best bound -1.645045978473e+00, gap 0.0000%

User-callback calls 78, time in user-callback 0.00 sec
Gurobi Optimizer version 9.1.2 build v9.1.2rc0 (linux64)
Thread count: 36 physical cores, 72 logical processors, using up to 32 threads
Optimize a model with 24 rows, 125 columns and 2580 nonzeros
Model fingerprint: 0xb522954b
Model has 105 quadratic constraints
Coefficient statistics:
  Matrix range     [5e-06, 5e+01]
  QMatrix range    [1e+00, 1e+00]
  QLMatrix range   [1e+00, 1e+00]
  Objective range  [7e-03, 9e-01]
  Bounds range     [1e+00, 1e+00]
  RHS range        [1e+00, 1e+00]
Presolve removed 10 rows and 0 columns

Continuous model is non-convex -- solving as a MIP.

Presolve removed 10 rows and 0 columns
Presolve time: 0.00s
Presolved: 429 rows, 125 columns, 2142 nonzeros
Presolved model has 105 bilinear constraint(s)
Variable types: 125 continuous, 0 integer (0 binary)

Root relaxation: objective -2.976615e+00, 119 iterations, 0.00 seconds

    Nodes    |    Current Node    |     Objective Bounds      |     Work
 Expl Unexpl |  Obj  Depth IntInf | Incumbent    BestBd   Gap | It/Node Time

     0     0   -2.97661    0   84          -   -2.97661      -     -    0s
H    0     0                      -1.4771415   -2.97661   102%     -    0s
     0     0   -2.72340    0   61   -1.47714   -2.72340  84.4%     -    0s
H    0     0                      -2.0153818   -2.72340  35.1%     -    0s
     0     0   -2.71669    0   42   -2.01538   -2.71669  34.8%     -    0s
     0     0   -2.68625    0   84   -2.01538   -2.68625  33.3%     -    0s
     0     0   -2.68259    0   57   -2.01538   -2.68259  33.1%     -    0s
     0     0   -2.67927    0   61   -2.01538   -2.67927  32.9%     -    0s
     0     0   -2.67865    0   61   -2.01538   -2.67865  32.9%     -    0s
     0     0   -2.67669    0   61   -2.01538   -2.67669  32.8%     -    0s
     0     0   -2.67627    0   61   -2.01538   -2.67627  32.8%     -    0s
     0     0   -2.67608    0   61   -2.01538   -2.67608  32.8%     -    0s
     0     0   -2.67582    0   61   -2.01538   -2.67582  32.8%     -    0s
     0     0   -2.67561    0   47   -2.01538   -2.67561  32.8%     -    0s
H    0     0                      -2.3499038   -2.67561  13.9%     -    0s
H    0     0                      -2.3612192   -2.67561  13.3%     -    0s
H    0     0                      -2.3764513   -2.67561  12.6%     -    0s
     0     2   -2.67561    0   47   -2.37645   -2.67561  12.6%     -    0s
*  509   192              20      -2.3769224   -2.48336  4.48%  17.0    0s
*  583   270              22      -2.3792671   -2.48336  4.37%  15.6    0s
*  631   270              23      -2.3937439   -2.48336  3.74%  14.7    0s
*  642   270              22      -2.3999082   -2.48336  3.48%  14.5    0s
*  752   223              17      -2.4007571   -2.46427  2.65%  13.0    0s
*  776   223              29      -2.4020847   -2.46427  2.59%  12.7    0s
*  902   308              34      -2.4088623   -2.46427  2.30%  11.4    0s
H 1035   330                      -2.4112685   -2.44881  1.56%  10.3    0s
H 1035   330                      -2.4116543   -2.44881  1.54%  10.3    0s
H 1049   330                      -2.4119202   -2.44881  1.53%  10.2    0s
H 1130   330                      -2.4119242   -2.44881  1.53%   9.6    0s
H 1198   330                      -2.4119242   -2.44881  1.53%   9.2    0s
* 2203   775              53      -2.4119906   -2.42127  0.38%   5.5    0s
* 2206   775              53      -2.4119906   -2.42127  0.38%   5.5    0s
* 2279   775              53      -2.4120816   -2.41790  0.24%   5.5    0s
* 3309   669              44      -2.4120835   -2.41351  0.06%   4.5    0s
* 3545   669              35      -2.4120845   -2.41351  0.06%   4.4    0s
* 4511   538              34      -2.4120845   -2.41265  0.02%   3.9    0s
* 4672   378              44      -2.4120847   -2.41233  0.01%   3.8    0s

Cutting planes:
  RLT: 42
  BQP: 3
  PSD: 15

Explored 5363 nodes (19467 simplex iterations) in 0.71 seconds
Thread count was 32 (of 72 available processors)

Solution count 10: -2.41208 -2.41208 -2.41208 ... -2.41165

Optimal solution found (tolerance 1.00e-04)
Best objective -2.412084654407e+00, best bound -2.412280392266e+00, gap 0.0081%

User-callback calls 11019, time in user-callback 0.00 sec



objective value: -2.4120846544071584
objective bound: -2.412280392265754
x_opt: [0.0, 0.0, 1.0, 0.0, 1.0, 0.03150211688899533, 0.0, 1.0, 1.0, 0.0, 1.494354788289761e-6, 0.5230198748872948, 0.0, 0.28931485067892077, 0.0, 0.28377447553188984, 0.0, 0.0, 0.1013128046117544, 0.0]
GUROBI solution time: 0.7053799629211426




